(set-logic QF_S)
(declare-fun var0 () Int)
(declare-fun var1 () String)
(declare-fun var2 () String)
(declare-fun var3 () String)
(declare-fun var4 () Int)
(declare-fun var5 () Int)
(declare-fun var6 () String)
(declare-fun var7 () Int)
(assert (< 141 var0))
(assert (str.suffixof var1 var2))
(assert (< (str.len (str.substr var3 var4 var5)) (str.to.int (str.replace var6 var2 var3))))
(assert (<= (str.len (str.at var2 var7)) (str.len var1)))
(check-sat)